Cost: 477
0-4-45-29-15-13-27-52-34-0
0-17-40-32-9-39-12-0
0-7-35-53-11-14-19-8-46-0
0-3-24-18-25-31-10-26-0
0-2-22-28-21-47-48-30-0
0-6-33-1-43-41-23-16-51-0
Cost: 477
0-4-45-29-15-13-27-52-34-0
0-17-40-32-9-39-12-0
0-7-35-53-11-14-19-8-46-0
0-3-24-18-25-31-10-26-0
0-2-22-28-21-47-48-30-0
0-6-33-1-43-41-23-16-51-0
Cost: 477
0-4-45-29-15-13-27-52-34-0
0-17-40-32-9-39-12-0
0-7-35-53-11-14-19-8-46-0
0-3-24-18-25-31-10-26-0
0-2-22-28-21-47-48-30-0
0-6-33-1-43-41-23-16-51-0
Cost: 477
0-4-45-29-15-13-27-52-34-0
0-17-40-32-9-39-12-0
0-7-35-53-11-14-19-8-46-0
0-3-24-18-25-31-10-26-0
0-2-22-28-21-47-48-30-0
0-6-33-1-43-41-23-16-51-0
Cost: 477
0-4-45-29-15-13-27-52-34-0
0-17-40-32-9-39-12-0
0-7-35-53-11-14-19-8-46-0
0-3-24-18-25-31-10-26-0
0-2-22-28-21-47-48-30-0
0-6-33-1-43-41-23-16-51-0
Cost: 477
0-4-45-29-15-13-27-52-34-0
0-17-40-32-9-39-12-0
0-7-35-53-11-14-19-8-46-0
0-3-24-18-25-31-10-26-0
0-2-22-28-21-47-48-30-0
0-6-33-1-43-41-23-16-51-0
Cost: 477
0-4-45-29-15-13-27-52-34-0
0-17-40-32-9-39-12-0
0-7-35-53-11-14-19-8-46-0
0-3-24-18-25-31-10-26-0
0-2-22-28-21-47-48-30-0
0-6-33-1-43-41-23-16-51-0
Cost: 477
0-4-45-29-15-13-27-52-34-0
0-17-40-32-9-39-12-0
0-7-35-53-11-14-19-8-46-0
0-3-24-18-25-31-10-26-0
0-2-22-28-21-47-48-30-0
0-6-33-1-43-41-23-16-51-0
Cost: 477
0-4-45-29-15-13-27-52-34-0
0-17-40-32-9-39-12-0
0-7-35-53-11-14-19-8-46-0
0-3-24-18-25-31-10-26-0
0-2-22-28-21-47-48-30-0
0-6-33-1-43-41-23-16-51-0
Cost: 477
0-4-45-29-15-13-27-52-34-0
0-17-40-32-9-39-12-0
0-7-35-53-11-14-19-8-46-0
0-3-24-18-25-31-10-26-0
0-2-22-28-21-47-48-30-0
0-6-33-1-43-41-23-16-51-0
Cost: 477
0-6-33-1-43-41-23-16-51-0
0-3-24-18-25-31-10-26-0
0-4-45-29-15-13-27-52-34-0
0-7-35-53-11-14-19-8-46-0
0-12-39-9-32-40-17-0
0-30-48-47-21-28-22-2-0
Cost: 477
0-26-10-31-25-18-24-3-0
0-4-45-29-15-13-27-52-34-0
0-46-8-19-14-11-53-35-7-0
0-51-16-23-41-43-1-33-6-0
0-12-39-9-32-40-17-0
0-2-22-28-21-47-48-30-0
Cost: 477
0-2-22-28-21-47-48-30-0
0-6-33-1-43-41-23-16-51-0
0-34-52-27-13-15-29-45-4-0
0-46-8-19-14-11-53-35-7-0
0-3-24-18-25-31-10-26-0
0-12-39-9-32-40-17-0
Cost: 477
0-4-45-29-15-13-27-52-34-0
0-7-35-53-11-14-19-8-46-0
0-17-40-32-9-39-12-0
0-2-22-28-21-47-48-30-0
0-51-16-23-41-43-1-33-6-0
0-3-24-18-25-31-10-26-0
Cost: 477
0-2-22-28-21-47-48-30-0
0-6-33-1-43-41-23-16-51-0
0-34-52-27-13-15-29-45-4-0
0-46-8-19-14-11-53-35-7-0
0-3-24-18-25-31-10-26-0
0-12-39-9-32-40-17-0
Cost: 477
0-2-22-28-21-47-48-30-0
0-6-33-1-43-41-23-16-51-0
0-34-52-27-13-15-29-45-4-0
0-46-8-19-14-11-53-35-7-0
0-3-24-18-25-31-10-26-0
0-12-39-9-32-40-17-0
Cost: 477
0-17-40-32-9-39-12-0
0-7-35-53-11-14-19-8-46-0
0-2-22-28-21-47-48-30-0
0-34-52-27-13-15-29-45-4-0
0-3-24-18-25-31-10-26-0
0-6-33-1-43-41-23-16-51-0
Cost: 477
0-3-24-18-25-31-10-26-0
0-6-33-1-43-41-23-16-51-0
0-4-45-29-15-13-27-52-34-0
0-46-8-19-14-11-53-35-7-0
0-17-40-32-9-39-12-0
0-30-48-47-21-28-22-2-0
Cost: 477
0-3-24-18-25-31-10-26-0
0-51-16-23-41-43-1-33-6-0
0-17-40-32-9-39-12-0
0-46-8-19-14-11-53-35-7-0
0-4-45-29-15-13-27-52-34-0
0-30-48-47-21-28-22-2-0
Cost: 477
0-12-39-9-32-40-17-0
0-26-10-31-25-18-24-3-0
0-46-8-19-14-11-53-35-7-0
0-6-33-1-43-41-23-16-51-0
0-34-52-27-13-15-29-45-4-0
0-30-48-47-21-28-22-2-0
Cost: 477
0-6-33-1-43-41-23-16-51-0
0-7-35-53-11-14-19-8-46-0
0-2-22-28-21-47-48-30-0
0-12-39-9-32-40-17-0
0-3-24-18-25-31-10-26-0
0-4-45-29-15-13-27-52-34-0
Cost: 477
0-34-52-27-13-15-29-45-4-0
0-12-39-9-32-40-17-0
0-7-35-53-11-14-19-8-46-0
0-30-48-47-21-28-22-2-0
0-51-16-23-41-43-1-33-6-0
0-26-10-31-25-18-24-3-0
Cost: 477
0-7-35-53-11-14-19-8-46-0
0-12-39-9-32-40-17-0
0-34-52-27-13-15-29-45-4-0
0-6-33-1-43-41-23-16-51-0
0-3-24-18-25-31-10-26-0
0-2-22-28-21-47-48-30-0
Cost: 477
0-34-52-27-13-15-29-45-4-0
0-12-39-9-32-40-17-0
0-7-35-53-11-14-19-8-46-0
0-30-48-47-21-28-22-2-0
0-51-16-23-41-43-1-33-6-0
0-26-10-31-25-18-24-3-0
Cost: 477
0-3-24-18-25-31-10-26-0
0-6-33-1-43-41-23-16-51-0
0-4-45-29-15-13-27-52-34-0
0-46-8-19-14-11-53-35-7-0
0-17-40-32-9-39-12-0
0-30-48-47-21-28-22-2-0
Cost: 477
0-51-16-23-41-43-1-33-6-0
0-30-48-47-21-28-22-2-0
0-7-35-53-11-14-19-8-46-0
0-17-40-32-9-39-12-0
0-4-45-29-15-13-27-52-34-0
0-3-24-18-25-31-10-26-0
Cost: 477
0-26-10-31-25-18-24-3-0
0-51-16-23-41-43-1-33-6-0
0-2-22-28-21-47-48-30-0
0-4-45-29-15-13-27-52-34-0
0-7-35-53-11-14-19-8-46-0
0-12-39-9-32-40-17-0
Cost: 477
0-17-40-32-9-39-12-0
0-34-52-27-13-15-29-45-4-0
0-7-35-53-11-14-19-8-46-0
0-51-16-23-41-43-1-33-6-0
0-2-22-28-21-47-48-30-0
0-26-10-31-25-18-24-3-0
Cost: 477
0-46-8-19-14-11-53-35-7-0
0-3-24-18-25-31-10-26-0
0-6-33-1-43-41-23-16-51-0
0-30-48-47-21-28-22-2-0
0-4-45-29-15-13-27-52-34-0
0-12-39-9-32-40-17-0
Cost: 477
0-34-52-27-13-15-29-45-4-0
0-46-8-19-14-11-53-35-7-0
0-3-24-18-25-31-10-26-0
0-17-40-32-9-39-12-0
0-51-16-23-41-43-1-33-6-0
0-30-48-47-21-28-22-2-0
Cost: 477
0-30-48-47-21-28-22-2-0
0-26-10-31-25-18-24-3-0
0-34-52-27-13-15-29-45-4-0
0-12-39-9-32-40-17-0
0-7-35-53-11-14-19-8-46-0
0-6-33-1-43-41-23-16-51-0
